0 7 11 66 65 38 10 31 9 39 72 58 12 26 0
0 52 27 57 15 5 37 20 70 60 71 36 69 21 47 48 30 75 0
0 67 34 46 8 35 53 14 59 19 54 13 29 45 4 0
0 51 33 63 16 49 24 18 55 25 50 32 44 3 40 17 0
0 6 62 73 1 43 23 56 41 42 64 22 61 28 74 2 68 0
